NAME: australia.csv-road-km-n6-k5
TYPE: CVRP
DIMENSION: 6
EDGE_WEIGHT_TYPE: EXPLICIT
EDGE_WEIGHT_FORMAT: FULL_MATRIX
EDGE_WEIGHT_UNIT_OF_MEASUREMENT: km
CAPACITY: 100
NODE_COORD_SECTION
0 -27.477356 153.028423
1 -27.569635 153.087838
2 -27.398992 153.065599
3 -27.453311 153.03491
4 -27.595365 153.069113
5 -27.561389 152.975278
EDGE_WEIGHT_SECTION
0.000 14.390 12.569 4.408 16.199 15.230 
0.000 0.000 23.501 17.917 12.699 17.129 
0.000 24.297 0.000 8.698 26.106 24.888 
0.000 16.178 8.740 0.000 17.987 16.679 
0.000 5.425 26.040 20.457 0.000 12.210 
0.000 13.422 24.724 16.568 12.214 0.000 
DEMAND_SECTION
0 0
1 1
2 1
3 1
4 1
5 1
DEPOT_SECTION
0
-1
EOF
